50

100 2 301
98 30 346
98 15 302
97 34 354
95 9 303
94 6 289
90 24 321
90 41 339
89 20 317
86 37 314
85 11 257
83 34 269
81 30 343
79 9 331
79 25 254
74 29 270
72 8 323
72 19 277
71 14 332
68 14 308
67 25 237
65 26 301
64 2 285
64 31 338
62 29 352
59 27 267
58 13 279
56 19 277
55 5 245
55 4 354
54 2 336
51 18 315
51 4 295
50 11 359
47 17 177
46 12 350
45 8 145
44 1 187
43 15 343
40 17 224
36 15 141
34 11 356
33 4 200
31 6 346
29 12 313
28 2 152
27 12 240
27 14 132
26 1 198
21 1 311
